
  27    4
  10   10   10   10

   0   0   0   0   0  10 2 3 4 5 6 7 10 11 13 26 
   9   0   0   1   3   6 25 24 23 16 12 9 
   1   0   0  10  10   5 25 24 22 17 8 
   6   3   5   0   0   5 24 20 18 15 12 
   6   5   7   0   0   3 22 17 9 
   7   6   0   0   9   6 23 22 21 19 18 16 
   8   8   0  10   0   5 23 22 20 18 14 
   7   5   0   0   6   4 23 21 20 18 
  10   8   0   0   5   3 20 18 15 
   2   9   0   7   0   3 24 19 18 
   6   5   0  10   0   3 20 19 18 
   6   8   0   0   4   2 22 19 
   4   7   0   0  10   2 22 19 
   5   0   9   0  10   1 15 
   7   9   0   0  10   1 21 
   8  10   0   0   5   1 20 
   5   9   0   6   0   1 19 
   5   0   5  10   0   1 27
   7  10   0   0   7   1 27
   2   0   7   0   8   1 27
   6   0   0   5  10   1 27
   1   0   0   7   8   1 27
   2  10   0   0   8   1 27
   4   8   8   0   0   1 27
   6   0   9   9   0   1 27
   7   0  10   0   7   1 27
   0   0   0   0   0   0 
